Set parameter Username
Academic license - for non-commercial use only - expires 2024-02-22
Warning: Gurobi version mismatch between Python 9.5.0 and C library 9.5.2
Set parameter TimeLimit to value 3600
Set parameter MIPGap to value 1e-06
Set parameter Threads to value 1
Gurobi Optimizer version 9.5.2 build v9.5.2rc0 (linux64)
Thread count: 4 physical cores, 4 logical processors, using up to 1 threads
Optimize a model with 260 rows, 312 columns and 674 nonzeros
Model fingerprint: 0x9529b165
Variable types: 208 continuous, 104 integer (104 binary)
Coefficient statistics:
  Matrix range     [1e+00, 2e+02]
  Objective range  [5e-01, 2e+03]
  Bounds range     [1e+00, 1e+00]
  RHS range        [2e+01, 2e+02]
Found heuristic solution: objective 52319.500000
Presolve removed 5 rows and 5 columns
Presolve time: 0.00s
Presolved: 255 rows, 307 columns, 668 nonzeros
Variable types: 204 continuous, 103 integer (103 binary)

Root relaxation: objective 1.970789e+04, 216 iterations, 0.00 seconds (0.00 work units)

    Nodes    |    Current Node    |     Objective Bounds      |     Work
 Expl Unexpl |  Obj  Depth IntInf | Incumbent    BestBd   Gap | It/Node Time

     0     0 19707.8869    0   75 52319.5000 19707.8869  62.3%     -    0s
H    0     0                    51374.500000 19707.8869  61.6%     -    0s
H    0     0                    33482.500000 19707.8869  41.1%     -    0s
     0     0 22086.5140    0   74 33482.5000 22086.5140  34.0%     -    0s
H    0     0                    32834.500000 22086.5140  32.7%     -    0s
     0     0 22734.7632    0   63 32834.5000 22734.7632  30.8%     -    0s
H    0     0                    31123.500000 22734.7632  27.0%     -    0s
     0     0 22816.0218    0   63 31123.5000 22816.0218  26.7%     -    0s
     0     0 22816.1546    0   63 31123.5000 22816.1546  26.7%     -    0s
     0     0 22924.4180    0   66 31123.5000 22924.4180  26.3%     -    0s
H    0     0                    28623.500000 22924.4180  19.9%     -    0s
     0     0 22954.2850    0   67 28623.5000 22954.2850  19.8%     -    0s
     0     0 22961.8559    0   65 28623.5000 22961.8559  19.8%     -    0s
     0     0 22964.3001    0   65 28623.5000 22964.3001  19.8%     -    0s
     0     0 22995.7199    0   58 28623.5000 22995.7199  19.7%     -    0s
H    0     0                    27092.500000 22995.7199  15.1%     -    0s
     0     0 23012.5713    0   64 27092.5000 23012.5713  15.1%     -    0s
     0     0 23016.2648    0   62 27092.5000 23016.2648  15.0%     -    0s
     0     0 23016.7436    0   63 27092.5000 23016.7436  15.0%     -    0s
     0     0 23050.8148    0   62 27092.5000 23050.8148  14.9%     -    0s
H    0     0                    26772.500000 23050.8148  13.9%     -    0s
     0     0 23055.4363    0   60 26772.5000 23055.4363  13.9%     -    0s
     0     0 23061.9239    0   67 26772.5000 23061.9239  13.9%     -    0s
     0     0 23064.3937    0   67 26772.5000 23064.3937  13.9%     -    0s
     0     0 23086.6127    0   69 26772.5000 23086.6127  13.8%     -    0s
     0     0 23091.8170    0   68 26772.5000 23091.8170  13.7%     -    0s
     0     0 23092.4680    0   66 26772.5000 23092.4680  13.7%     -    0s
     0     0 23101.9527    0   61 26772.5000 23101.9527  13.7%     -    0s
     0     0 23108.8859    0   64 26772.5000 23108.8859  13.7%     -    0s
     0     0 23111.9755    0   66 26772.5000 23111.9755  13.7%     -    0s
     0     0 23112.2658    0   68 26772.5000 23112.2658  13.7%     -    0s
     0     0 23132.3257    0   65 26772.5000 23132.3257  13.6%     -    0s
     0     0 23132.3257    0   65 26772.5000 23132.3257  13.6%     -    0s
     0     2 23133.6267    0   65 26772.5000 23133.6267  13.6%     -    0s
H   27    27                    26384.361007 23134.6462  12.3%   6.5    0s
H   27    27                    24450.500000 23134.6462  5.38%   6.5    0s
H   43    43                    24387.349307 23134.6462  5.14%   5.9    0s
H   45    45                    24320.349307 23134.6462  4.88%   5.9    0s
H   47    47                    23901.977379 23134.6462  3.21%   5.7    0s
*   48    46              45    23700.500000 23134.6462  2.39%   5.8    0s
* 1291   488              39    23651.500000 23302.1370  1.48%  12.3    1s
* 2119   375              36    23636.500000 23462.8164  0.73%  14.5    1s
H 2182   309                    23621.500000 23468.9291  0.65%  14.5    1s
H 2253   207                    23574.500000 23479.8559  0.40%  14.6    1s

Cutting planes:
  Gomory: 2
  MIR: 118
  Flow cover: 102
  Flow path: 20

Explored 2624 nodes (38714 simplex iterations) in 2.16 seconds (1.57 work units)
Thread count was 1 (of 4 available processors)

Solution count 10: 23574.5 23621.5 23636.5 ... 26772.5

Optimal solution found (tolerance 1.00e-06)
Best objective 2.357450000000e+04, best bound 2.357450000000e+04, gap 0.0000%
Obj: 23574.5
